row=10;
column=10;
Board=[|4,5,0,10,6,9,0,0,2,8|8,0,10,1,5,0,4,0,9,0|5,7,6,0,2,0,1,0,3,4|6,4,7,9,0,8,0,3,0,5|7,8,0,2,4,5,0,0,6,0|0,6,3,0,0,0,7,0,8,0|3,10,0,7,9,0,8,0,5,2|2,1,8,3,7,0,9,5,0,6|0,2,0,0,8,3,6,10,0,1|1,9,0,0,0,7,5,8,4,10|];
OE=[|0,1,1,0,0,1,1,1,0,0|0,1,0,1,1,0,0,0,1,1|1,1,0,0,0,0,1,1,1,0|0,0,1,1,0,0,0,1,1,1|1,0,1,0,0,1,0,1,0,1|0,0,1,1,1,0,1,0,0,1|1,0,0,1,1,1,0,0,1,0|0,1,0,1,1,0,1,1,0,0|1,0,1,0,0,1,0,0,1,1|1,1,0,0,1,1,1,0,0,0|];
